# Objective value = 3.0365210635152505e+02
x[0] 0
x[1] 0
x[2] 1
x[3] 0
x[4] 1
x[5] 0
x[6] 1
x[7] 9.9999953778149275e-01
x[8] 1
x[9] 0
x[10] 1
x[11] 9.9999947523411292e-01
x[12] 0
x[13] 0
x[14] 1
x[15] 0
x[16] 1
x[17] 1
x[18] 1
x[19] 0
x[20] 0
x[21] 0
x[22] 0
x[23] 0
x[24] 1
x[25] 0
x[26] 0
x[27] 0
x[28] 5.2938196607131846e-07
x[29] 0
x[30] 0
x[31] 0
x[32] 0
x[33] 1.0000001998274008e+00
x[34] 1
x[35] 1
x[36] 1.2784554488291102e-07
x[37] 1
x[38] 0
x[39] 0
x[40] 1
x[41] 1.9970207873819317e-07
x[42] 1
x[43] 1
x[44] 0
x[45] 1
x[46] 0
x[47] 0
x[48] 7.8578245701645685e-07
x[49] 1
x[50] 9.9999947356744634e-01
x[51] 0
x[52] 5.2968082287886379e-07
x[53] 4.2308194692718367e-07
x[54] 0
x[55] 1
x[56] 1
x[57] 0
x[58] 0
x[59] 1
x[60] 1
x[61] 0
x[62] 1
x[63] 1
x[64] 1
x[65] 1
x[66] 0
x[67] 1
x[68] 7.2951126782309216e-07
x[69] 1.9979538629100610e-07
x[70] 0
x[71] 1
x[72] 0
x[73] 9.9999953770527861e-01
x[74] 0
x[75] 1
x[76] 0
x[77] 1
x[78] 1
x[79] 1
x[80] 1
x[81] 1
x[82] 0
x[83] 0
x[84] 4.6547097925577261e-07
x[85] 4.6532010919895873e-07
x[86] 0
x[87] 1
x[88] 1
x[89] 1
x[90] 0
x[91] 0
x[92] 1
x[93] 0
x[94] -1.9488329880149535e-07
x[95] 0
x[96] 1
x[97] 0
x[98] 0
x[99] 0
x[100] 0
x[101] 0
x[102] 0
x[103] 1
x[104] 1
x[105] 7.2952384483208076e-07
x[106] 9.9999987490523989e-01
x[107] 1
x[108] 0
x[109] 0
x[110] 1
x[111] 1
x[112] 1.2812803502575850e-07
x[113] 1
x[114] 1
x[115] 1
x[116] -5.2976588704733985e-07
x[117] 1
x[118] 5.2872064706670316e-07
x[119] 0
x[120] 1
x[121] 1
x[122] 0
x[123] 0
x[124] 1
x[125] 1
x[126] 0
x[127] 0
x[128] 1
x[129] 0
x[130] 1
x[131] 0
x[132] 0
x[133] 4.65474453395466e-07
x[134] 1
x[135] 1
x[136] 5.29691991004301e-07
x[137] 1
x[138] 1.0594385179313668e-06
x[139] 0
x[140] 1
x[141] 1
x[142] 0
x[143] 1.0000003368539396e+00
x[144] 9.9999947356744634e-01
x[145] 1
x[146] 1
x[147] 1
x[148] 0
x[149] 0
x[150] 0
x[151] 0
x[152] 1
x[153] 4.6529975109537042e-07
x[154] 1
x[155] 0
x[156] 0
x[157] 5.2959032706102209e-07
x[158] 5.2899950808571968e-07
x[159] 9.9999953444815937e-01
x[160] 1
x[161] 0
x[162] 0
x[163] 7.29498919314086e-07
x[164] 9.3104352225581525e-07
x[165] 1
x[166] 1
x[167] 1
x[168] 9.9999953944815934e-01
x[169] 0
x[170] 9.9999947356744656e-01
x[171] 0
x[172] 1
x[173] 0
x[174] 0
x[175] 0
x[176] 1
x[177] 0
x[178] 5.2962842926009584e-07
x[179] 0
x[180] 1.0000003370661632e+00
x[181] 0
x[182] 1
x[183] 0
x[184] 0
x[185] 1
x[186] 0
x[187] 0
x[188] 1
x[189] 0
x[190] 1
x[191] 1
x[192] 0
x[193] 1
x[194] 1
x[195] 0
x[196] 1
x[197] 1
x[198] 1
x[199] 1
x[200] 0
x[201] 1
x[202] 9.9999907222965212e-01
x[203] 0
x[204] 0
x[205] 0
x[206] 0
x[207] 1
x[208] 0
x[209] 1
x[210] 1
x[211] 1
x[212] 1
x[213] 0
x[214] 1
x[215] 1
x[216] 1
x[217] 0
x[218] 0
x[219] 0.999999470234113
x[220] 0
x[221] 0
x[222] 9.9999947356744634e-01
x[223] 1
x[224] 1
x[225] 0
x[226] 0
x[227] 0
x[228] 9.9999894546822576e-01
x[229] 1
x[230] 1
x[231] 1
x[232] 0
x[233] 1
x[234] 1
x[235] 9.9999907222965212e-01
x[236] 0
x[237] 1
x[238] 0
x[239] 1
x[240] 0
x[241] 1
x[242] 1
x[243] 0
x[244] 0
x[245] 1
x[246] 4.6541508478272626e-07
x[247] 1
x[248] 0
x[249] 0
x[250] 1
x[251] 0
x[252] 0
x[253] 1
x[254] 0
x[255] 0
x[256] 1
x[257] 1
x[258] 1
x[259] 0
x[260] 0
x[261] 1
x[262] 0
x[263] 9.9999967892976627e-01
x[264] 0
x[265] 1
x[266] 5.2956592833669141e-07
x[267] 0
x[268] 0
x[269] 1
x[270] 1
x[271] 0
x[272] 1
x[273] 0
x[274] 1
x[275] 1
x[276] 1
x[277] 0
x[278] 4.6546633356927140e-07
x[279] 0
x[280] 0
x[281] 1
x[282] 0
x[283] 0
x[284] 1
x[285] 1
x[286] 0
x[287] 0
x[288] 1
x[289] 9.9999953778149275e-01
x[290] 0
x[291] 1
x[292] 0
x[293] 0
x[294] 0
x[295] 0
x[296] 1
x[297] 1
x[298] 0
x[299] 1
x[300] 0
x[301] 5.0787863628801857e-07
x[302] 0
x[303] 1
x[304] 1
x[305] 1
x[306] 0
x[307] 1
x[308] 1
x[309] 0
x[310] 1
x[311] 0
x[312] 0
x[313] 0
x[314] 0
x[315] 0
x[316] 9.9999959866220633e-01
x[317] 5.2962988547611390e-07
x[318] 1
x[319] 0
x[320] 1
x[321] 1
x[322] 0
x[323] 1
x[324] 1
x[325] 0
x[326] 4.6520806626011280e-07
x[327] -3.3712374625238795e-07
x[328] 1
x[329] 1
x[330] 1
x[331] 1
x[332] 0
x[333] 0
x[334] 1
x[335] 0
x[336] 0
x[337] 1
x[338] 0
x[339] 9.9999906889631873e-01
x[340] 1
x[341] 0
x[342] 0
x[343] 1
x[344] 1
x[345] 4.6548599173087486e-07
x[346] 0
x[347] 1
x[348] 0
x[349] 1
x[350] 0
x[351] 9.9999953778149275e-01
x[352] 1
x[353] 0
x[354] 0
x[355] 1
x[356] 1
x[357] 0
x[358] 0
x[359] 0
x[360] 1
x[361] 0
x[362] 1
x[363] 1
x[364] 1
x[365] 0
x[366] 0
x[367] 4.6544695144063382e-07
x[368] 1
x[369] 0
x[370] 1
x[371] 1
x[372] 1
x[373] 1
x[374] 1
x[375] 0
x[376] 4.6535540589843989e-07
x[377] 1
x[378] 1
x[379] 0
x[380] 1
x[381] 0
x[382] 0
x[383] 1
x[384] 1
x[385] 1
x[386] 4.6518673131480816e-07
x[387] 0
x[388] 1
x[389] 1
x[390] 1
x[391] 0
x[392] 0
x[393] 0
x[394] 0
x[395] 1
x[396] 9.9999947523411292e-01
x[397] 1
x[398] 1
x[399] 0
x[400] -3.3379041294177055e-07
x[401] 0
x[402] 0
x[403] 1
x[404] 1
x[405] 1
x[406] 1
x[407] 1
x[408] 1
x[409] 1
x[410] 0
x[411] 1
x[412] 0
x[413] 0
x[414] 0.99999947164887
x[415] 0
x[416] 0
x[417] 0
x[418] 0
x[419] 1
x[420] 0
x[421] 1
x[422] 1
x[423] 1
x[424] 4.0099979398154929e-07
x[425] 0
x[426] 0
x[427] 0
x[428] 0
x[429] 1
x[430] 5.29702125862779e-07
x[431] 0
x[432] 0
x[433] 0
x[434] 1
x[435] 1
x[436] 1
x[437] 9.9999927364821273e-01
x[438] 1
x[439] 1
x[440] 1
x[441] 0
x[442] 1
x[443] 0
x[444] 1
x[445] 1
x[446] 0
x[447] 1
x[448] 4.6545908573072214e-07
x[449] 0
x[450] 1
x[451] 0
x[452] 0
x[453] 1
x[454] 1
x[455] 1
x[456] 0
x[457] 1
x[458] 1
x[459] 1
x[460] 1
x[461] 1
x[462] 9.9999927535081368e-01
x[463] 1
x[464] 1
x[465] 0
x[466] 1
x[467] 9.9999947523411292e-01
x[468] 0
x[469] 0
x[470] 0
x[471] 0
x[472] 1
x[473] 1
x[474] 1
x[475] 9.9999953444815937e-01
x[476] 1
x[477] 0
x[478] 1
x[479] 0
x[480] 5.2956867786254367e-07
x[481] 0
x[482] 1
x[483] 1
x[484] 0
x[485] 0
x[486] 1
x[487] 0
x[488] 0
x[489] 1
x[490] 1
x[491] 1
x[492] 0
x[493] 4.6523154820639244e-07
x[494] 1
x[495] 0
x[496] 0
x[497] 1
x[498] 0
x[499] 1
x[500] 0
x[501] 9.3088526244089067e-07
x[502] 0
x[503] 0
x[504] 0
x[505] 0
x[506] 9.9999953778149275e-01
x[507] 9.9999927382206555e-01
x[508] 0
x[509] 1
x[510] 1
x[511] 4.6539798668968458e-07
x[512] 0
x[513] 4.6547479629844219e-07
x[514] 9.9999953778149275e-01
x[515] 0
x[516] 0
x[517] 1
x[518] 0
x[519] 1
x[520] 0
x[521] 1
x[522] 9.9999981069119293e-01
x[523] 0
x[524] 1
x[525] 0
x[526] 0
x[527] 1
x[528] 4.6532398603660505e-07
x[529] 1
x[530] 0
x[531] 1
x[532] 9.9999953784734164e-01
x[533] 1
x[534] 0
x[535] 0
x[536] 1
x[537] 1
x[538] 1
x[539] 9.9999987157190651e-01
x[540] 1
x[541] 1
x[542] 1
x[543] 1
x[544] 1
x[545] 1
x[546] 1
x[547] 1
x[548] 1
x[549] 1
x[550] 0
x[551] 1
x[552] 1
x[553] 0
x[554] 9.9999927368414709e-01
x[555] 1
x[556] 0
x[557] 1
x[558] 0
x[559] 1
x[560] 1
x[561] 0
x[562] 1.2829180783682655e-07
x[563] 0
x[564] 0
x[565] 1
x[566] 0
x[567] 0
x[568] 0
x[569] 0
x[570] 1
x[571] 0
x[572] 0
x[573] 1
x[574] 1
x[575] 0
x[576] 0.999999072229652
x[577] 1
x[578] 0
x[579] 0
x[580] 0
x[581] 9.9999947356744634e-01
x[582] 1
x[583] 1
x[584] 0
x[585] 0
x[586] 9.9999927368414709e-01
x[587] 1
x[588] 1
x[589] 9.9999981235785951e-01
x[590] 9.9999947363120745e-01
x[591] 1
x[592] 0
x[593] 1
x[594] 0
x[595] 0
x[596] 1
x[597] 0
x[598] 0
x[599] 0
x[600] 1
x[601] 0
x[602] 1
x[603] 0
x[604] -3.3712374625238795e-07
x[605] 0
x[606] 9.9999987157190651e-01
x[607] 1
x[608] 0
x[609] 0
x[610] 4.65427006753417e-07
x[611] 0
x[612] 0
x[613] 0
x[614] 1
x[615] 0
x[616] 1.9974405502254948e-07
x[617] 1
x[618] 1
x[619] 1
x[620] 9.9999947523411292e-01
x[621] 1
x[622] 1
x[623] 1
x[624] 0
x[625] 1
x[626] 1
x[627] 1
x[628] 0
x[629] 9.9999953444815937e-01
x[630] 0
x[631] 0
x[632] 0
x[633] 0
x[634] 1
x[635] 1
x[636] 0
x[637] 1.9258160989277567e-07
x[638] 1
x[639] 0
x[640] 1
x[641] 0
x[642] 1
x[643] 0
x[644] 0
x[645] 0
x[646] 1
x[647] 0
x[648] 0
x[649] 0
x[650] 0
x[651] 0
x[652] 1
x[653] 1
x[654] 0
x[655] 9.9999927368414709e-01
x[656] 0
x[657] 0
x[658] 0
x[659] 0
x[660] 0
x[661] 1
x[662] 1
x[663] 1
x[664] 0
x[665] 1
x[666] 0
x[667] 1
x[668] 1
x[669] 0
x[670] 0
x[671] 1
x[672] 1
x[673] 1
x[674] 0
x[675] 1
x[676] 0
x[677] 1
x[678] 9.9999953784734164e-01
x[679] 0
x[680] 0
x[681] 0
x[682] 5.2936123799202652e-07
x[683] 0
x[684] 9.9999967892976627e-01
x[685] 0
x[686] 1
x[687] 0
x[688] 0
x[689] 1
x[690] 0
x[691] 0
x[692] 1
x[693] 1
x[694] 1.0000003367867547e+00
x[695] 9.9999953444815937e-01
x[696] 0
x[697] 0
x[698] 0
x[699] 0
x[700] 1
x[701] 0
x[702] 0
x[703] 1
x[704] 0
x[705] 0
x[706] 0
x[707] 0
x[708] 0
x[709] 9.3097446074901468e-07
x[710] 5.2966821388266411e-07
x[711] 0
x[712] 1
x[713] 0
x[714] 0
x[715] 0.999999470234113
x[716] 0
x[717] 1
x[718] 9.9999860834447807e-01
x[719] 0
x[720] 0
x[721] 1.0000002085663675e+00
x[722] 4.6547196367434688e-07
x[723] 1
x[724] 1
x[725] 0
x[726] 0
x[727] 1
x[728] 1
x[729] 9.3100910778106143e-07
x[730] 0
x[731] 0
x[732] 0
x[733] 0
x[734] -2.0592308616186366e-07
x[735] 9.9999987490523989e-01
x[736] 1
x[737] 1
x[738] 0
x[739] 1
x[740] 4.6542371860320105e-07
x[741] 9.9999947523411292e-01
x[742] 1
x[743] 1.9251264932370557e-07
x[744] 9.9999967892976627e-01
x[745] 0
x[746] 0
x[747] 0
x[748] 1
x[749] 0
x[750] 1
x[751] 1
x[752] 0
x[753] 7.2917352834053959e-07
x[754] 1
x[755] 0
x[756] 9.9999953444815937e-01
x[757] 1
x[758] 0
x[759] 1
x[760] 9.9999957683402751e-01
x[761] 0
x[762] 1
x[763] 0
x[764] 0
x[765] 9.9999953778149275e-01
x[766] 0
x[767] 0
x[768] 1
x[769] 9.9999873516606486e-01
x[770] 0
x[771] 1
x[772] 0
x[773] 0
x[774] 0
x[775] 1
x[776] 1
x[777] 1
x[778] 1
x[779] 0
x[780] 9.3098645048068933e-07
x[781] 0
x[782] 1
x[783] 0
x[784] 0
x[785] 0
x[786] 0
x[787] 1
x[788] 0
x[789] 0
x[790] 0
x[791] 1
x[792] 1
x[793] 0
x[794] 0
x[795] 0
x[796] 0
x[797] 0
x[798] 1
x[799] 1
x[800] 0
x[801] 0
x[802] 0
x[803] 0
x[804] 0
x[805] 1
x[806] 0
x[807] 1
x[808] 1
x[809] 0
x[810] 1
x[811] 7.2932686262193953e-07
x[812] 0
x[813] 0
x[814] 0
x[815] 0
x[816] 0
x[817] -1.9488329880149535e-07
x[818] 0
x[819] 0
x[820] 5.2960070055362653e-07
x[821] 1
x[822] 0
x[823] 1
x[824] 0
x[825] 1
x[826] 0
x[827] 9.9999987157190651e-01
x[828] 0
x[829] 1
x[830] 0
x[831] 1
x[832] 0
x[833] -2.0869565320325023e-07
x[834] 0
x[835] 0
x[836] 9.9999980345003414e-01
x[837] 4.6549207162517317e-07
x[838] 1
x[839] 0
x[840] 1
x[841] 4.6531835489858956e-07
x[842] 1
x[843] 1
x[844] 1
x[845] 0
x[846] 1
x[847] 0
x[848] 1
x[849] 0
x[850] 1.0000003370393524e+00
x[851] 0
x[852] 0
x[853] 1.0000001998201991e+00
x[854] 0
x[855] 1
x[856] 0
x[857] 1
x[858] 1
x[859] 1
x[860] 1.2837442218943347e-07
x[861] 0
x[862] 0
x[863] 1
x[864] 1
x[865] 0
x[866] 1
x[867] 1
x[868] 0
x[869] 1
x[870] 1
x[871] 0
x[872] 1
x[873] 1
x[874] 1.0000001997973014e+00
x[875] 1
x[876] 1
x[877] 0
x[878] 1
x[879] 0
x[880] 1
x[881] -3.3712374632070936e-07
x[882] 1
x[883] 1
x[884] 1
x[885] 0
x[886] 0
x[887] 1
x[888] 1
x[889] 1
x[890] 5.2964750650260514e-07
x[891] 0
x[892] 9.3103778769380683e-07
x[893] 1
x[894] 0.999999538146602
x[895] 1
x[896] 0
x[897] 1
x[898] 1
x[899] -1.9867357694938441e-07
x[900] 1
x[901] 1
x[902] 0
x[903] 0
x[904] 0
x[905] 1
x[906] 0
x[907] 1
x[908] 0
x[909] 7.2957599255539571e-07
x[910] 0
x[911] 1
x[912] 1
x[913] 0
x[914] 0
x[915] 0
x[916] 0
x[917] 1
x[918] 1
x[919] 2.4290831405977244e-07
x[920] 1
x[921] 1
x[922] 1
x[923] 0
x[924] 1
x[925] 1
x[926] 0
x[927] 1
x[928] 0
x[929] 1
x[930] 1
x[931] 0
x[932] 1
x[933] 0
x[934] 0
x[935] 0
x[936] 0
x[937] 1
x[938] 0
x[939] 1
x[940] 1
x[941] 7.2772611823176327e-07
x[942] 0
x[943] 1
x[944] 1
x[945] 0
x[946] 0
x[947] 1
x[948] 5.2970554689001213e-07
x[949] 1
x[950] 1
x[951] 1
x[952] 1
x[953] 3.2097285878718614e-07
x[954] 9.9999953944815934e-01
x[955] 0
x[956] 0
x[957] 0
x[958] 1
x[959] 0
x[960] 3.2094444396656675e-07
x[961] 1
x[962] 5.2969593016342690e-07
x[963] 1
x[964] 1.0000003370360406e+00
x[965] 0
x[966] 0
x[967] 9.9999958183402748e-01
x[968] 0
x[969] 1
x[970] 0
x[971] 0
x[972] 1
x[973] 0
x[974] 0
x[975] 1
x[976] 1.2835705092114371e-07
x[977] 1
x[978] 4.2309892458439030e-07
x[979] 1.0000002086312831e+00
x[980] 1
x[981] 1
x[982] 0
x[983] 1
x[984] 0
x[985] 1
x[986] 1
x[987] 0
x[988] 0
x[989] 1
x[990] 1
x[991] 0
x[992] 0
x[993] 1
x[994] 0
x[995] 1
x[996] 1
x[997] 4.6533771829729130e-07
x[998] 0
x[999] 0
